Course Timeslot 
1 14
2 7
3 9
4 0
5 11
6 0
7 0
8 7
9 3
10 2
11 4
12 0
13 0
14 3
15 1
16 0
17 0
18 3
19 2
20 1
21 4
22 0
23 10
24 2
25 0
26 8
27 8
28 5
29 7
30 6
31 3
32 1
33 9
34 2
35 0
36 1
37 2
38 3
39 9
40 10
41 9
42 2
43 7
44 5
45 8
46 5
47 1
48 7
49 9
50 0
51 3
52 9
53 0
54 8
55 0
56 2
57 1
58 6
59 3
60 0
61 4
62 2
63 1
64 0
65 3
66 3
67 0
68 1
69 2
70 1
71 0
72 2
73 3
74 1
75 0
76 3
77 0
78 3
79 2
80 1
81 1
82 0
83 2
84 13
85 15
86 13
87 14
88 15
89 13
90 12
91 9
92 10
93 16
94 14
95 0
96 17
97 15
98 17
99 9
100 10
101 5
102 13
103 1
104 3
105 1
106 3
107 2
108 0
109 1
110 1
111 12
112 12
113 11
114 4
115 5
116 4
117 7
118 3
119 11
120 8
121 6
122 0
123 13
124 10
125 0
126 0
127 12
128 6
129 1
130 0
131 0
132 3
133 0
134 2
135 1
136 1
137 2
138 0
139 1
140 5
141 8
142 5
143 3
144 6
145 14
146 7
147 16
148 17
149 5
150 11
151 3
152 8
153 4
154 1
155 4
156 0
157 3
158 2
159 3
160 0
161 3
162 2
163 1
164 13
165 13
166 3
167 10
168 8
169 5
170 0
171 14
172 7
173 13
174 12
175 4
176 18
177 16
178 0
179 7
180 13
181 15
182 14
183 9
184 7
185 10
186 1
187 1
188 5
189 3
190 3
191 2
192 12
193 17
194 4
195 2
196 0
197 2
198 3
199 5
200 1
201 0
202 3
203 1
204 0
205 0
206 1
207 1
208 2
209 5
210 1
211 1
212 1
213 1
214 5
215 12
216 0
217 4
218 11
219 4
220 5
221 0
222 7
223 10
224 7
225 6
226 7
227 8
228 9
229 9
230 0
231 1
232 2
233 0
234 1
235 1
236 0
237 2
238 5
239 8
240 2
241 0
242 3
243 9
244 12
245 8
246 10
247 8
248 2
249 3
250 2
251 2
252 4
253 2
254 2
255 4
256 2
257 4
258 5
259 11
260 15
261 10
262 16
263 14
264 15
265 7
266 6
267 13
268 10
269 15
270 10
271 0
272 7
273 1
274 12
275 8
276 13
277 3
278 5
279 3
280 1
281 2
282 0
283 0
284 1
285 0
286 4
287 4
288 14
289 6
290 7
291 9
292 6
293 6
294 14
295 11
296 6
297 5
298 6
299 7
300 3
301 12
302 1
303 11
304 0
305 2
306 1
307 0
308 2
309 1
310 0
311 2
312 0
313 0
314 1
315 3
316 15
317 10
318 11
319 11
320 12
321 13
322 12
323 16
324 5
325 10
326 10
327 14
328 15
329 0
330 0
331 12
332 9
333 16
334 4
335 0
336 1
337 18
338 11
339 17
340 3
341 13
342 0
343 11
344 0
345 0
346 2
347 1
348 1
349 1
350 3
351 2
352 6
353 8
354 5
355 0
356 0
357 1
358 12
359 5
360 6
361 8
362 3
363 1
364 4
365 11
366 12
367 2
368 5
369 0
370 2
371 4
372 2
373 2
374 0
375 0
376 2
377 13
378 15
379 13
380 9
381 0
382 11
383 4
384 2
385 10
386 9
387 10
388 2
389 1
390 3
391 0
392 0
393 0
394 0
395 3
396 0
397 0
398 0
399 0
400 5
401 9
402 3
403 2
404 5
405 1
406 6
407 2
408 2
409 0
410 1
411 2
412 0
413 7
414 13
415 10
416 3
417 0
418 3
419 6
420 4
421 5
422 1
423 0
424 2
425 0
426 2
427 1
428 0
429 3
430 6
431 11
432 9
433 6
434 11
435 5
436 11
437 0
438 5
439 4
440 5
441 7
442 9
443 0
444 1
445 3
446 8
447 1
448 10
449 5
450 0
451 3
452 6
453 2
454 2
455 3
456 0
457 0
458 4
459 0
460 2
461 9
